\* Problem: Unknown *\

Maximize
 obj: + xp_0_0 + xp_0_1 + xp_0_2 + xp_0_3 + xp_1_0 + xp_1_1 + xp_1_2
 + xp_2_0 + xp_2_1 + xp_2_2 + xp_2_3 + xp_2_4 + xp_3_0 + xp_3_1 + xp_3_2
 + xp_4_0 + xp_5_0 + xp_5_1 + xp_6_0 + xp_7_0 + xp_8_0 + xp_8_1 + xp_9_0
 + xp_10_0 + xp_10_1 + xp_11_0 + xp_11_1 + xp_11_2 + xp_11_3 + xp_12_0
 + xp_13_0 + xp_13_1 + xp_14_0 + xp_14_1 + xp_15_0 + xp_16_0 + xp_16_1
 + xp_17_0 + xp_17_1 + xp_17_2 + xp_17_3 + xp_17_4 + xp_18_0 + xp_18_1
 + xp_18_2 + xp_18_3 + xp_19_0 + xp_19_1 + xp_19_2 + xp_19_3 + xp_20_0
 + xp_20_1 + xp_20_2 + xp_20_3 + xp_21_0 + xp_21_1 + xp_21_2 + xp_21_3
 + xp_21_4 + xp_22_0 + xp_22_1 + xp_22_2 + xp_22_3 + xp_23_0 + xp_23_1
 + xp_23_2 + xp_23_3 + xp_23_4 + xp_23_5

Subject To
 r_1: + xp_20_2 <= 26.3893805309735
 r_2: + xp_23_3 + xp_18_3 + xp_5_1 + xp_2_2 <= 25.9391100702576
 r_3: + xp_23_4 + xp_21_3 + xp_18_2 <= 26.9620253164557
 r_4: + xp_17_1 + xp_15_0 <= 27.3778920308483
 r_5: + xp_18_0 <= 25.8704453441296
 r_6: + xp_18_1 <= 26.5090230242688
 r_7: + xp_20_3 <= 26.3893805309735
 r_8: + xp_23_5 + xp_22_2 + xp_11_2 + xp_3_1 + xp_2_3
 <= 25.9391100702576
 r_9: + xp_23_2 + xp_11_1 + xp_3_2 <= 26.9620253164557
 r_10: + xp_17_3 + xp_3_0 <= 27.3778920308483
 r_11: + xp_18_1 + xp_11_3 <= 25.8704453441296
 r_12: + xp_11_0 <= 26.5090230242688
 r_13: 0 xp_0_0 <= 27.941473259334
 r_14: + xp_21_1 + xp_14_0 + xp_0_2 <= 25.9391100702576
 r_15: + xp_21_0 + xp_19_1 <= 26.9620253164557
 r_16: + xp_22_1 + xp_0_3 + xp_0_1 <= 27.6367006487488
 r_17: + xp_0_0 <= 25.8704453441296
 r_18: + xp_21_3 + xp_4_0 <= 26.3893805309735
 r_19: + xp_19_0 <= 26.3893805309735
 r_20: + xp_21_4 + xp_21_2 + xp_19_3 + xp_19_2 + xp_14_1
 <= 27.941473259334
 r_21: + xp_20_1 <= 25.9391100702576
 r_22: + xp_21_4 + xp_21_1 <= 26.9620253164557
 r_23: + xp_23_5 + xp_22_3 + xp_22_2 + xp_17_4 <= 27.6367006487488
 r_24: + xp_23_3 + xp_3_1 <= 26.9620253164557
 r_25: 0 xp_0_0 <= 27.941473259334
 r_26: + xp_18_3 + xp_0_2 <= 25.8704453441296
 r_27: + xp_20_2 + xp_11_2 <= 25.9391100702576
 r_28: + xp_19_2 + xp_10_1 <= 25.9391100702576
 r_29: 0 xp_0_0 <= 26.9620253164557
 r_30: + xp_2_0 <= 26.9620253164557
 r_31: + xp_23_4 + xp_23_2 + xp_18_2 + xp_3_2 + xp_2_4
 <= 26.9620253164557
 r_32: + xp_2_1 <= 27.941473259334
 r_33: + xp_11_1 + xp_2_2 <= 26.9620253164557
 r_34: + xp_19_1 + xp_2_3 <= 26.9620253164557
 r_35: 0 xp_0_0 <= 27.6367006487488
 r_36: + xp_9_0 <= 27.6367006487488
 r_37: + xp_13_1 + xp_8_1 <= 26.9620253164557
 r_38: + xp_23_5 + xp_1_1 <= 27.941473259334
 r_39: + xp_17_4 + xp_0_3 <= 27.3778920308483
 r_40: + xp_0_1 <= 25.8704453441296
 r_41: + xp_12_0 + xp_2_4 <= 26.9620253164557
 r_42: 0 xp_0_0 <= 26.9620253164557
 r_43: + xp_16_0 <= 26.9620253164557
 r_44: + xp_23_4 + xp_23_3 + xp_23_2 + xp_23_1 + xp_16_1 + xp_1_2
 <= 27.941473259334
 r_45: + xp_3_2 + xp_3_1 <= 27.3778920308483
 r_46: + xp_18_2 <= 25.8704453441296
 r_47: + xp_16_1 + xp_13_1 <= 27.941473259334
 r_48: + xp_13_0 <= 27.941473259334
 r_49: + xp_17_2 <= 27.3778920308483
 r_50: 0 xp_0_0 <= 25.8704453441296
 r_51: + xp_8_1 + xp_1_1 <= 27.3778920308483
 r_52: + xp_8_0 + xp_1_2 <= 27.3778920308483
 r_53: + xp_1_0 <= 27.3778920308483
 r_54: + xp_0_3 <= 25.8704453441296
 r_55: 0 xp_0_0 <= 27.3778920308483
 r_56: 0 xp_0_0 <= 27.3778920308483
 r_57: + xp_22_1 <= 25.8704453441296
 r_58: + xp_22_3 + xp_17_4 + xp_5_0 <= 25.8704453441296
 r_59: + xp_22_0 <= 25.8704453441296
 r_60: + xp_23_1 + xp_6_0 <= 25.8704453441296
 r_61: + xp_23_0 + xp_17_2 <= 25.8704453441296
 r_62: + xp_17_0 <= 25.8704453441296
 r_63: + xp_23_4 + xp_23_3 + xp_17_1 + xp_11_3 + xp_5_1
 <= 25.8704453441296
 r_64: + xp_23_5 + xp_23_2 + xp_22_2 + xp_17_3 <= 25.8704453441296
 r_65: + xp_21_4 + xp_20_2 + xp_20_1 + xp_19_2 + xp_14_1 + xp_10_1
 + xp_2_1 <= 27.941473259334
 r_66: + xp_21_2 + xp_7_0 <= 27.941473259334
 r_67: + xp_20_3 + xp_19_3 + xp_10_0 <= 27.941473259334
 r_68: + xp_20_0 <= 27.941473259334

Bounds
 0 <= xp_0_0 <= 28.798647615508
 0 <= xp_0_1 <= 14.399323807754
 0 <= xp_0_2 <= 4.79977460258466
 0 <= xp_0_3 <= 9.59954920516933
 0 <= xp_1_0 <= 19.8433841546801
 0 <= xp_1_1 <= 11.5324064381937
 0 <= xp_1_2 <= 1.28857148868289
 0 <= xp_2_0 <= 20.3357426335259
 0 <= xp_2_1 <= 0.56832211159364
 0 <= xp_2_2 <= 4.79977460258466
 0 <= xp_2_3 <= 5.93641882577194
 0 <= xp_2_4 <= 0.56832211159364
 0 <= xp_3_0 <= 19.1990984103387
 0 <= xp_3_1 <= 4.79977460258466
 0 <= xp_3_2 <= 4.79977460258466
 0 <= xp_4_0 <= 24.308362479298
 0 <= xp_5_0 <= 20.2569687327483
 0 <= xp_5_1 <= 4.05139374654966
 0 <= xp_6_0 <= 21.8775262313682
 0 <= xp_7_0 <= 20.9659626383945
 0 <= xp_8_0 <= 15.6991507678799
 0 <= xp_8_1 <= 3.13983015357599
 0 <= xp_9_0 <= 17.4716355319954
 0 <= xp_10_0 <= 14.5596962766628
 0 <= xp_10_1 <= 2.91193925533257
 0 <= xp_11_0 <= 22.8509877176168
 0 <= xp_11_1 <= 14.0166953759851
 0 <= xp_11_2 <= 9.21692077340048
 0 <= xp_11_3 <= 9.21692077340048
 0 <= xp_12_0 <= 16.4081446735261
 0 <= xp_13_0 <= 13.2936357308661
 0 <= xp_13_1 <= 2.65872714617322
 0 <= xp_14_0 <= 12.6606054579677
 0 <= xp_14_1 <= 2.53212109159354
 0 <= xp_15_0 <= 15.0407992840656
 0 <= xp_16_0 <= 12.0275751850693
 0 <= xp_16_1 <= 2.40551503701386
 0 <= xp_17_0 <= 26.2383950449687
 0 <= xp_17_1 <= 2.23952203204538
 0 <= xp_17_2 <= 4.47904406409075
 0 <= xp_17_3 <= 7.03929663463004
 0 <= xp_17_4 <= 2.23952203204538
 0 <= xp_18_0 <= 20.2063263109164
 0 <= xp_18_1 <= 9.59954920516933
 0 <= xp_18_2 <= 6.73544210363881
 0 <= xp_18_3 <= 3.8713350021083
 0 <= xp_19_0 <= 27.718280749536
 0 <= xp_19_1 <= 1.85970386830634
 0 <= xp_19_2 <= 3.71940773661269
 0 <= xp_19_3 <= 6.65947847089101
 0 <= xp_20_0 <= 27.4650686403766
 0 <= xp_20_1 <= 8.265970230038
 0 <= xp_20_2 <= 1.73309781372667
 0 <= xp_20_3 <= 1.73309781372667
 0 <= xp_21_0 <= 26.9080020002261
 0 <= xp_21_1 <= 6.25433909623604
 0 <= xp_21_2 <= 1.45456449365138
 0 <= xp_21_3 <= 1.45456449365138
 0 <= xp_21_4 <= 1.45456449365138
 0 <= xp_22_0 <= 30
 0 <= xp_22_1 <= 2.40270476898405
 0 <= xp_22_2 <= 2.40270476898405
 0 <= xp_22_3 <= 1.20135238449202
 0 <= xp_23_0 <= 21.6018031793227
 0 <= xp_23_1 <= 2.40270476898405
 0 <= xp_23_2 <= 1.20135238449202
 0 <= xp_23_3 <= 4.79977460258466
 0 <= xp_23_4 <= 4.79977460258466
 0 <= xp_23_5 <= 1.20135238449202

End
